p edge 75 555
e 1 4
e 1 19
e 1 21
e 1 22
e 1 25
e 1 28
e 1 32
e 1 34
e 1 35
e 1 46
e 1 48
e 1 58
e 1 59
e 1 63
e 1 64
e 1 73
e 1 74
e 2 6
e 2 10
e 2 19
e 2 28
e 2 31
e 2 52
e 2 54
e 2 58
e 3 4
e 3 6
e 3 8
e 3 16
e 3 18
e 3 27
e 3 32
e 3 37
e 3 49
e 3 53
e 3 54
e 3 58
e 3 64
e 3 67
e 4 5
e 4 9
e 4 12
e 4 18
e 4 19
e 4 23
e 4 27
e 4 32
e 4 33
e 4 49
e 4 51
e 4 52
e 4 63
e 4 64
e 4 69
e 4 70
e 5 6
e 5 7
e 5 25
e 5 32
e 5 34
e 5 41
e 5 43
e 5 47
e 5 52
e 6 11
e 6 13
e 6 18
e 6 22
e 6 23
e 6 24
e 6 26
e 6 28
e 6 30
e 6 31
e 6 34
e 6 45
e 6 48
e 6 49
e 6 50
e 6 51
e 6 53
e 6 57
e 6 65
e 6 72
e 6 73
e 6 74
e 7 19
e 7 21
e 7 25
e 7 28
e 7 29
e 7 30
e 7 32
e 7 43
e 7 44
e 7 45
e 7 49
e 7 52
e 7 55
e 7 58
e 7 61
e 7 69
e 8 21
e 8 29
e 8 30
e 8 34
e 8 35
e 8 37
e 8 47
e 8 48
e 8 50
e 8 51
e 8 57
e 8 67
e 9 16
e 9 31
e 9 32
e 9 35
e 9 41
e 9 47
e 9 52
e 10 11
e 10 18
e 10 26
e 10 28
e 10 34
e 10 46
e 10 48
e 10 51
e 10 54
e 10 56
e 10 58
e 10 69
e 10 71
e 10 74
e 11 13
e 11 17
e 11 23
e 11 26
e 11 30
e 11 35
e 11 39
e 11 44
e 11 47
e 11 52
e 11 55
e 11 72
e 12 18
e 12 19
e 12 22
e 12 26
e 12 30
e 12 34
e 12 39
e 12 45
e 12 46
e 12 48
e 12 49
e 12 51
e 12 52
e 12 53
e 12 60
e 12 65
e 12 71
e 12 74
e 12 75
e 13 15
e 13 19
e 13 25
e 13 31
e 13 33
e 13 34
e 13 40
e 13 45
e 13 55
e 13 58
e 13 64
e 13 68
e 13 70
e 13 73
e 14 22
e 14 23
e 14 29
e 14 39
e 14 44
e 14 49
e 14 55
e 14 60
e 14 61
e 14 68
e 14 70
e 14 71
e 15 24
e 15 26
e 15 28
e 15 29
e 15 39
e 15 40
e 15 45
e 15 49
e 15 61
e 15 65
e 16 19
e 16 25
e 16 29
e 16 31
e 16 36
e 16 46
e 16 50
e 16 55
e 16 59
e 16 61
e 16 71
e 17 18
e 17 19
e 17 28
e 17 30
e 17 31
e 17 32
e 17 43
e 17 45
e 17 49
e 17 51
e 17 56
e 17 58
e 17 64
e 18 19
e 18 20
e 18 22
e 18 24
e 18 29
e 18 32
e 18 35
e 18 36
e 18 39
e 18 49
e 18 58
e 18 62
e 18 65
e 18 74
e 19 21
e 19 29
e 19 34
e 19 44
e 19 45
e 19 49
e 19 51
e 19 52
e 19 56
e 19 58
e 19 64
e 19 69
e 19 70
e 19 71
e 19 74
e 20 24
e 20 27
e 20 29
e 20 30
e 20 31
e 20 50
e 20 57
e 20 60
e 20 61
e 20 71
e 21 25
e 21 27
e 21 37
e 21 41
e 21 44
e 21 50
e 21 54
e 21 56
e 21 68
e 22 28
e 22 32
e 22 42
e 22 47
e 22 53
e 22 56
e 22 64
e 22 66
e 22 73
e 23 24
e 23 30
e 23 31
e 23 35
e 23 38
e 23 40
e 23 45
e 23 46
e 23 64
e 23 67
e 23 68
e 23 74
e 23 75
e 24 27
e 24 30
e 24 41
e 24 46
e 24 47
e 24 48
e 24 55
e 24 60
e 24 67
e 24 69
e 25 33
e 25 34
e 25 39
e 25 49
e 25 51
e 25 54
e 25 65
e 25 72
e 25 74
e 25 75
e 26 30
e 26 34
e 26 35
e 26 38
e 26 39
e 26 43
e 26 44
e 26 52
e 26 57
e 26 69
e 26 70
e 26 71
e 27 30
e 27 39
e 27 43
e 27 44
e 27 60
e 28 30
e 28 36
e 28 49
e 28 67
e 28 71
e 29 37
e 29 39
e 29 40
e 29 45
e 29 52
e 29 57
e 29 62
e 29 64
e 29 65
e 29 67
e 29 74
e 30 36
e 30 43
e 30 46
e 30 50
e 30 57
e 30 59
e 30 61
e 30 70
e 30 72
e 30 74
e 30 75
e 31 38
e 31 41
e 31 42
e 31 48
e 31 52
e 31 58
e 31 75
e 32 47
e 32 59
e 32 60
e 32 63
e 33 43
e 33 44
e 33 49
e 33 54
e 33 55
e 33 72
e 34 35
e 34 46
e 34 47
e 34 49
e 34 67
e 34 68
e 35 45
e 35 48
e 35 50
e 35 53
e 35 54
e 35 56
e 35 63
e 35 69
e 35 71
e 35 72
e 35 73
e 36 38
e 36 40
e 36 57
e 36 60
e 36 61
e 36 62
e 36 66
e 36 67
e 36 75
e 37 40
e 37 41
e 37 42
e 37 55
e 37 58
e 37 67
e 38 39
e 38 54
e 38 60
e 38 61
e 38 62
e 39 48
e 39 55
e 39 64
e 39 65
e 39 71
e 40 45
e 40 49
e 40 51
e 40 56
e 40 58
e 40 60
e 40 61
e 40 65
e 40 67
e 40 72
e 40 73
e 41 44
e 41 46
e 41 52
e 41 63
e 41 70
e 41 74
e 41 75
e 42 54
e 42 62
e 42 63
e 42 72
e 43 49
e 43 51
e 43 54
e 43 55
e 43 56
e 43 64
e 43 70
e 43 71
e 43 73
e 43 75
e 44 51
e 44 58
e 44 59
e 44 68
e 44 74
e 45 46
e 45 48
e 45 52
e 45 55
e 45 57
e 45 58
e 45 61
e 45 67
e 45 74
e 46 52
e 46 54
e 46 55
e 46 57
e 46 59
e 46 60
e 46 67
e 46 72
e 47 53
e 47 56
e 47 69
e 47 70
e 48 54
e 48 56
e 48 57
e 48 58
e 48 63
e 48 65
e 48 68
e 48 72
e 48 73
e 48 74
e 49 50
e 49 51
e 49 61
e 49 65
e 49 74
e 50 51
e 50 57
e 50 58
e 50 61
e 51 56
e 51 61
e 51 66
e 51 68
e 51 71
e 52 53
e 52 59
e 52 60
e 52 61
e 52 65
e 52 67
e 52 68
e 52 70
e 52 72
e 53 56
e 53 61
e 53 62
e 53 67
e 53 68
e 53 74
e 54 60
e 54 68
e 54 71
e 55 59
e 55 62
e 55 66
e 55 70
e 56 57
e 56 68
e 56 71
e 57 58
e 57 64
e 57 74
e 57 75
e 58 68
e 58 70
e 59 61
e 59 70
e 60 63
e 60 68
e 61 69
e 62 63
e 62 65
e 63 64
e 63 65
e 64 67
e 64 70
e 64 72
e 65 66
e 65 71
e 65 73
e 66 68
e 66 70
e 67 68
e 67 69
e 70 75
e 72 73
e 72 74
e 72 75
